30	100	100	100
26	85	6
33	44	45
79	62	86
30	20	11
34	18	64
82	60	96
82	74	27
87	19	1
48	43	46
97	97	66
11	62	76
93	93	78
18	87	61
72	60	15
67	7	54
73	41	66
84	10	37
72	86	66
17	79	33
92	46	16
86	32	69
68	15	90
84	8	58
65	97	28
71	74	43
27	25	27
72	50	79
96	25	83
39	54	78
44	53	48
